91
527
66
0 21
0 45
0 51
1 3
1 8
1 10
1 14
1 42
1 84
2 4
2 6
2 12
2 15
2 16
2 17
2 24
2 31
2 36
2 40
2 85
2 87
2 90
3 8
3 10
3 14
3 38
3 39
3 43
3 44
3 48
3 76
4 6
4 12
4 15
4 16
4 17
4 24
4 31
4 36
4 40
5 7
5 9
5 11
5 13
5 19
5 45
5 57
5 67
5 80
6 12
6 15
6 16
6 17
6 20
6 35
6 56
7 9
7 11
7 13
7 19
7 24
7 25
7 32
7 40
7 45
7 57
7 67
7 80
8 10
8 14
8 26
8 27
8 42
8 84
9 11
9 13
9 30
9 45
9 59
9 60
9 61
9 62
9 64
9 68
9 85
9 87
10 14
10 26
10 27
10 38
10 39
10 43
10 44
11 13
11 30
11 45
11 58
11 63
12 15
12 16
12 17
12 20
12 24
12 31
12 35
12 40
12 56
13 27
13 45
13 52
14 32
14 38
14 39
14 43
14 44
14 46
14 59
14 61
14 65
14 73
14 77
14 81
15 16
15 17
15 24
15 31
15 40
15 63
15 69
15 81
15 84
15 86
16 17
16 25
16 28
16 29
16 50
16 51
16 55
16 60
16 88
17 24
17 31
17 40
18 20
18 22
18 26
18 34
18 35
18 48
18 56
19 24
19 25
19 27
19 32
19 40
19 46
19 52
19 53
19 57
19 65
19 67
19 77
19 78
19 80
20 22
20 26
20 34
20 35
20 48
20 56
21 33
21 36
21 38
21 39
21 41
21 45
21 47
21 51
21 54
21 64
21 71
21 83
22 23
22 26
22 30
22 34
22 35
22 48
22 56
23 26
23 30
23 34
23 35
24 25
24 31
24 32
24 40
24 63
24 69
24 81
24 84
24 86
25 28
25 29
25 32
25 40
25 50
25 51
25 55
25 60
25 88
26 27
26 30
26 34
26 35
26 48
26 54
26 56
26 73
26 74
26 79
26 83
27 32
27 46
27 52
27 53
27 65
27 77
27 78
28 29
28 47
28 49
28 51
28 55
28 60
28 64
28 68
28 71
28 84
28 85
28 86
28 88
29 60
29 88
30 34
30 35
30 45
30 54
30 59
30 60
30 61
30 62
30 73
30 74
30 79
30 83
31 40
31 85
31 87
31 90
32 34
32 35
32 37
32 40
32 42
32 46
32 52
32 53
32 65
32 77
32 78
33 36
33 38
33 39
33 41
33 45
33 47
33 51
33 64
33 71
34 35
34 37
34 40
34 42
34 48
34 56
35 37
35 40
35 42
35 48
35 56
36 38
36 39
36 41
36 45
36 47
36 51
36 64
36 71
37 40
37 42
38 39
38 43
38 44
39 43
39 44
39 48
39 76
40 42
40 85
40 87
40 90
41 45
41 47
41 51
41 64
41 71
42 84
43 44
44 46
44 59
44 61
44 73
44 81
45 47
45 51
45 64
45 71
46 52
46 53
46 54
46 59
46 61
46 65
46 73
46 77
46 78
46 81
47 49
47 51
47 64
47 68
47 71
47 84
47 85
47 86
48 56
48 57
48 66
48 67
48 72
48 76
48 80
49 51
49 64
49 68
49 71
49 84
49 85
49 86
50 55
51 55
51 64
51 68
51 71
51 84
51 85
51 86
51 88
52 53
52 54
52 59
52 65
52 73
52 77
52 78
52 81
53 54
53 59
53 65
53 73
53 77
53 78
53 81
54 59
54 73
54 74
54 79
54 81
54 83
55 88
56 57
56 66
56 67
56 72
56 80
57 66
57 67
57 72
57 80
58 60
58 63
58 65
58 74
58 77
58 78
58 79
58 82
58 83
58 88
59 60
59 61
59 62
59 64
59 68
59 73
59 81
59 85
59 87
60 61
60 62
60 65
60 69
60 70
60 74
60 77
60 78
60 79
60 82
60 83
60 88
61 62
61 64
61 68
61 73
61 81
61 85
61 87
63 69
63 81
63 84
63 86
64 68
64 71
64 84
64 85
64 86
64 87
65 69
65 70
65 74
65 77
65 78
65 79
65 82
65 83
65 88
66 67
66 72
66 76
66 80
67 72
67 76
67 80
68 71
68 84
68 85
68 86
68 87
69 70
69 81
69 84
69 86
71 73
71 76
71 81
71 84
71 85
71 86
72 74
72 75
72 80
72 89
73 74
73 76
73 79
73 81
73 83
73 84
73 86
74 75
74 77
74 78
74 79
74 82
74 83
74 88
75 80
75 89
76 81
76 84
76 86
77 78
77 79
77 82
77 83
77 88
78 79
78 82
78 83
78 88
79 82
79 83
79 88
80 89
81 84
81 86
82 83
82 88
83 88
84 85
84 86
85 86
85 87
85 90
87 90
0
1
2 3
4
5
6 7
8
9 10
11 12
13
14
15 16
17
18
19 20
21 22
23
24 25
26 27
28
29
30 31
32 33
34
35 36
37
38
39 40
41
42
43
44
45
46 47
48
49
50
51 52
53
54
55
56
57
58 59
60 61
62
63
64 65
66
67
68
69
70
71
72
73 74
75 76
77
78
79 80
81 82
83 84
85 86
87 88
89
90
